p cnf 441 1
441 0
w 1 0.621511
w 2 1 0
w 2 -1 1
w 3 2 0
w 3 -2 1
w 4 3 0
w 4 -3 1
w 5 4 0.676322
w 5 -4 0.970552
w 6 5 0
w 6 -5 1
w 7 6 0.956215
w 7 -6 0.198133
w 8 7 1
w 8 -7 0
w 9 8 1
w 9 -8 0
w 10 9 0
w 10 -9 1
w 11 10 0.314756
w 11 -10 0.311103
w 12 11 0
w 12 -11 1
w 13 12 0
w 13 -12 1
w 14 13 1
w 14 -13 0
w 15 14 1
w 15 -14 0
w 16 15 0.103308
w 16 -15 0.404095
w 17 16 0.531044
w 17 -16 0.0986241
w 18 17 0.207366
w 18 -17 0.0691761
w 19 18 0
w 19 -18 1
w 20 19 0.415798
w 20 -19 0.0343931
w 21 20 0
w 21 -20 1
w 22 1 0
w 22 -1 1
w 23 22 2 1
w 23 22 -2 0
w 23 -22 2 0
w 23 -22 -2 0
w 24 23 3 0.992165
w 24 23 -3 0.91414
w 24 -23 3 0.713556
w 24 -23 -3 0.532756
w 25 24 4 1
w 25 24 -4 0
w 25 -24 4 1
w 25 -24 -4 0
w 26 25 5 1
w 26 25 -5 1
w 26 -25 5 0
w 26 -25 -5 1
w 27 26 6 0.266753
w 27 26 -6 0.622812
w 27 -26 6 0.67466
w 27 -26 -6 0.104287
w 28 27 7 0
w 28 27 -7 0
w 28 -27 7 1
w 28 -27 -7 1
w 29 28 8 0.261305
w 29 28 -8 0.913446
w 29 -28 8 0.00370457
w 29 -28 -8 0.813569
w 30 29 9 0
w 30 29 -9 0
w 30 -29 9 1
w 30 -29 -9 1
w 31 30 10 1
w 31 30 -10 1
w 31 -30 10 1
w 31 -30 -10 0
w 32 31 11 0
w 32 31 -11 1
w 32 -31 11 0
w 32 -31 -11 0
w 33 32 12 1
w 33 32 -12 1
w 33 -32 12 1
w 33 -32 -12 0
w 34 33 13 1
w 34 33 -13 0
w 34 -33 13 1
w 34 -33 -13 0
w 35 34 14 0
w 35 34 -14 0
w 35 -34 14 1
w 35 -34 -14 0
w 36 35 15 0.627958
w 36 35 -15 0.172289
w 36 -35 15 0.511482
w 36 -35 -15 0.966449
w 37 36 16 1
w 37 36 -16 0
w 37 -36 16 1
w 37 -36 -16 0
w 38 37 17 1
w 38 37 -17 0
w 38 -37 17 0
w 38 -37 -17 0
w 39 38 18 0.058605
w 39 38 -18 0.409965
w 39 -38 18 0.715328
w 39 -38 -18 0.759522
w 40 39 19 0
w 40 39 -19 1
w 40 -39 19 1
w 40 -39 -19 1
w 41 40 20 0
w 41 40 -20 1
w 41 -40 20 1
w 41 -40 -20 0
w 42 41 21 0
w 42 41 -21 0
w 42 -41 21 1
w 42 -41 -21 0
w 43 22 0
w 43 -22 1
w 44 43 23 1
w 44 43 -23 1
w 44 -43 23 0
w 44 -43 -23 1
w 45 44 24 1
w 45 44 -24 0
w 45 -44 24 0
w 45 -44 -24 0
w 46 45 25 1
w 46 45 -25 1
w 46 -45 25 1
w 46 -45 -25 0
w 47 46 26 0.347492
w 47 46 -26 0.4316
w 47 -46 26 0.11889
w 47 -46 -26 0.237015
w 48 47 27 0
w 48 47 -27 1
w 48 -47 27 0
w 48 -47 -27 0
w 49 48 28 0
w 49 48 -28 1
w 49 -48 28 0
w 49 -48 -28 0
w 50 49 29 0.392299
w 50 49 -29 0.773059
w 50 -49 29 0.338625
w 50 -49 -29 0.590419
w 51 50 30 1
w 51 50 -30 1
w 51 -50 30 0
w 51 -50 -30 1
w 52 51 31 0.0119882
w 52 51 -31 0.915431
w 52 -51 31 0.313285
w 52 -51 -31 0.401972
w 53 52 32 1
w 53 52 -32 0
w 53 -52 32 1
w 53 -52 -32 0
w 54 53 33 1
w 54 53 -33 1
w 54 -53 33 1
w 54 -53 -33 0
w 55 54 34 1
w 55 54 -34 0
w 55 -54 34 0
w 55 -54 -34 1
w 56 55 35 0.630221
w 56 55 -35 0.997452
w 56 -55 35 0.546825
w 56 -55 -35 0.968846
w 57 56 36 0
w 57 56 -36 0
w 57 -56 36 0
w 57 -56 -36 1
w 58 57 37 0.669154
w 58 57 -37 0.320206
w 58 -57 37 0.261376
w 58 -57 -37 0.0711255
w 59 58 38 0
w 59 58 -38 1
w 59 -58 38 0
w 59 -58 -38 0
w 60 59 39 0.382805
w 60 59 -39 0.666499
w 60 -59 39 0.648484
w 60 -59 -39 0.94582
w 61 60 40 0.396569
w 61 60 -40 0.603383
w 61 -60 40 0.531168
w 61 -60 -40 0.00172147
w 62 61 41 0
w 62 61 -41 1
w 62 -61 41 0
w 62 -61 -41 1
w 63 62 42 0
w 63 62 -42 1
w 63 -62 42 1
w 63 -62 -42 0
w 64 43 0
w 64 -43 1
w 65 64 44 1
w 65 64 -44 1
w 65 -64 44 1
w 65 -64 -44 0
w 66 65 45 0.0809482
w 66 65 -45 0.0374158
w 66 -65 45 0.640034
w 66 -65 -45 0.0671681
w 67 66 46 0
w 67 66 -46 1
w 67 -66 46 1
w 67 -66 -46 1
w 68 67 47 1
w 68 67 -47 0
w 68 -67 47 1
w 68 -67 -47 1
w 69 68 48 0.113115
w 69 68 -48 0.270546
w 69 -68 48 0.930848
w 69 -68 -48 0.700159
w 70 69 49 0
w 70 69 -49 1
w 70 -69 49 0
w 70 -69 -49 0
w 71 70 50 0
w 71 70 -50 1
w 71 -70 50 1
w 71 -70 -50 1
w 72 71 51 1
w 72 71 -51 0
w 72 -71 51 1
w 72 -71 -51 0
w 73 72 52 0.652815
w 73 72 -52 0.689787
w 73 -72 52 0.630467
w 73 -72 -52 0.0188558
w 74 73 53 0.742688
w 74 73 -53 0.98828
w 74 -73 53 0.437065
w 74 -73 -53 0.85663
w 75 74 54 1
w 75 74 -54 0
w 75 -74 54 1
w 75 -74 -54 1
w 76 75 55 1
w 76 75 -55 0
w 76 -75 55 0
w 76 -75 -55 0
w 77 76 56 0
w 77 76 -56 1
w 77 -76 56 0
w 77 -76 -56 0
w 78 77 57 1
w 78 77 -57 0
w 78 -77 57 0
w 78 -77 -57 1
w 79 78 58 1
w 79 78 -58 0
w 79 -78 58 1
w 79 -78 -58 1
w 80 79 59 1
w 80 79 -59 0
w 80 -79 59 0
w 80 -79 -59 1
w 81 80 60 0.295705
w 81 80 -60 0.459215
w 81 -80 60 0.549952
w 81 -80 -60 0.46423
w 82 81 61 1
w 82 81 -61 0
w 82 -81 61 0
w 82 -81 -61 1
w 83 82 62 0
w 83 82 -62 0
w 83 -82 62 1
w 83 -82 -62 0
w 84 83 63 0
w 84 83 -63 1
w 84 -83 63 0
w 84 -83 -63 1
w 85 64 1
w 85 -64 0
w 86 85 65 1
w 86 85 -65 0
w 86 -85 65 0
w 86 -85 -65 0
w 87 86 66 0
w 87 86 -66 0
w 87 -86 66 1
w 87 -86 -66 1
w 88 87 67 0.648746
w 88 87 -67 0.866599
w 88 -87 67 0.423697
w 88 -87 -67 0.777866
w 89 88 68 0
w 89 88 -68 1
w 89 -88 68 0
w 89 -88 -68 0
w 90 89 69 1
w 90 89 -69 0
w 90 -89 69 0
w 90 -89 -69 0
w 91 90 70 0
w 91 90 -70 1
w 91 -90 70 0
w 91 -90 -70 1
w 92 91 71 0.68988
w 92 91 -71 0.225578
w 92 -91 71 0.576477
w 92 -91 -71 0.295614
w 93 92 72 0.948572
w 93 92 -72 0.959376
w 93 -92 72 0.115171
w 93 -92 -72 0.265219
w 94 93 73 0.763917
w 94 93 -73 0.131819
w 94 -93 73 0.342541
w 94 -93 -73 0.541783
w 95 94 74 0
w 95 94 -74 1
w 95 -94 74 1
w 95 -94 -74 0
w 96 95 75 1
w 96 95 -75 0
w 96 -95 75 0
w 96 -95 -75 1
w 97 96 76 0
w 97 96 -76 1
w 97 -96 76 0
w 97 -96 -76 0
w 98 97 77 0
w 98 97 -77 0
w 98 -97 77 1
w 98 -97 -77 0
w 99 98 78 1
w 99 98 -78 1
w 99 -98 78 0
w 99 -98 -78 1
w 100 99 79 1
w 100 99 -79 0
w 100 -99 79 1
w 100 -99 -79 0
w 101 100 80 0.635279
w 101 100 -80 0.381739
w 101 -100 80 0.3935
w 101 -100 -80 0.254478
w 102 101 81 1
w 102 101 -81 0
w 102 -101 81 1
w 102 -101 -81 0
w 103 102 82 0
w 103 102 -82 0
w 103 -102 82 0
w 103 -102 -82 1
w 104 103 83 0
w 104 103 -83 1
w 104 -103 83 1
w 104 -103 -83 1
w 105 104 84 0.398962
w 105 104 -84 0.0143961
w 105 -104 84 0.962631
w 105 -104 -84 0.851745
w 106 85 1
w 106 -85 0
w 107 106 86 1
w 107 106 -86 0
w 107 -106 86 1
w 107 -106 -86 1
w 108 107 87 0
w 108 107 -87 0
w 108 -107 87 1
w 108 -107 -87 1
w 109 108 88 1
w 109 108 -88 0
w 109 -108 88 0
w 109 -108 -88 0
w 110 109 89 0
w 110 109 -89 0
w 110 -109 89 1
w 110 -109 -89 0
w 111 110 90 1
w 111 110 -90 1
w 111 -110 90 0
w 111 -110 -90 1
w 112 111 91 1
w 112 111 -91 1
w 112 -111 91 0
w 112 -111 -91 0
w 113 112 92 0
w 113 112 -92 0
w 113 -112 92 0
w 113 -112 -92 1
w 114 113 93 1
w 114 113 -93 0
w 114 -113 93 1
w 114 -113 -93 1
w 115 114 94 1
w 115 114 -94 1
w 115 -114 94 0
w 115 -114 -94 0
w 116 115 95 1
w 116 115 -95 0
w 116 -115 95 1
w 116 -115 -95 1
w 117 116 96 1
w 117 116 -96 1
w 117 -116 96 1
w 117 -116 -96 0
w 118 117 97 0
w 118 117 -97 0
w 118 -117 97 1
w 118 -117 -97 0
w 119 118 98 0
w 119 118 -98 0
w 119 -118 98 0
w 119 -118 -98 1
w 120 119 99 1
w 120 119 -99 0
w 120 -119 99 1
w 120 -119 -99 0
w 121 120 100 1
w 121 120 -100 1
w 121 -120 100 0
w 121 -120 -100 1
w 122 121 101 1
w 122 121 -101 0
w 122 -121 101 1
w 122 -121 -101 1
w 123 122 102 0
w 123 122 -102 0
w 123 -122 102 1
w 123 -122 -102 1
w 124 123 103 0.498175
w 124 123 -103 0.879632
w 124 -123 103 0.863864
w 124 -123 -103 0.223811
w 125 124 104 1
w 125 124 -104 0
w 125 -124 104 0
w 125 -124 -104 1
w 126 125 105 0.494088
w 126 125 -105 0.00107013
w 126 -125 105 0.837854
w 126 -125 -105 0.564587
w 127 106 1
w 127 -106 0
w 128 127 107 1
w 128 127 -107 0
w 128 -127 107 0
w 128 -127 -107 1
w 129 128 108 0
w 129 128 -108 0
w 129 -128 108 0
w 129 -128 -108 1
w 130 129 109 0
w 130 129 -109 0
w 130 -129 109 1
w 130 -129 -109 1
w 131 130 110 0.137525
w 131 130 -110 0.982618
w 131 -130 110 0.09809
w 131 -130 -110 0.190165
w 132 131 111 0
w 132 131 -111 1
w 132 -131 111 0
w 132 -131 -111 1
w 133 132 112 0
w 133 132 -112 1
w 133 -132 112 1
w 133 -132 -112 1
w 134 133 113 0
w 134 133 -113 1
w 134 -133 113 0
w 134 -133 -113 1
w 135 134 114 0.780532
w 135 134 -114 0.8513
w 135 -134 114 0.721806
w 135 -134 -114 0.653583
w 136 135 115 0
w 136 135 -115 1
w 136 -135 115 0
w 136 -135 -115 1
w 137 136 116 1
w 137 136 -116 0
w 137 -136 116 0
w 137 -136 -116 0
w 138 137 117 1
w 138 137 -117 0
w 138 -137 117 1
w 138 -137 -117 1
w 139 138 118 0
w 139 138 -118 1
w 139 -138 118 0
w 139 -138 -118 1
w 140 139 119 0
w 140 139 -119 1
w 140 -139 119 0
w 140 -139 -119 1
w 141 140 120 0.44923
w 141 140 -120 0.0287494
w 141 -140 120 0.777381
w 141 -140 -120 0.171036
w 142 141 121 0
w 142 141 -121 1
w 142 -141 121 1
w 142 -141 -121 1
w 143 142 122 0
w 143 142 -122 0
w 143 -142 122 1
w 143 -142 -122 0
w 144 143 123 1
w 144 143 -123 1
w 144 -143 123 0
w 144 -143 -123 1
w 145 144 124 1
w 145 144 -124 0
w 145 -144 124 1
w 145 -144 -124 1
w 146 145 125 1
w 146 145 -125 0
w 146 -145 125 1
w 146 -145 -125 0
w 147 146 126 1
w 147 146 -126 0
w 147 -146 126 1
w 147 -146 -126 0
w 148 127 1
w 148 -127 0
w 149 148 128 1
w 149 148 -128 0
w 149 -148 128 1
w 149 -148 -128 1
w 150 149 129 0.890053
w 150 149 -129 0.881349
w 150 -149 129 0.930028
w 150 -149 -129 0.461645
w 151 150 130 0
w 151 150 -130 1
w 151 -150 130 0
w 151 -150 -130 1
w 152 151 131 0
w 152 151 -131 0
w 152 -151 131 1
w 152 -151 -131 1
w 153 152 132 0.499863
w 153 152 -132 0.236435
w 153 -152 132 0.140691
w 153 -152 -132 0.14031
w 154 153 133 0
w 154 153 -133 0
w 154 -153 133 0
w 154 -153 -133 1
w 155 154 134 1
w 155 154 -134 0
w 155 -154 134 0
w 155 -154 -134 0
w 156 155 135 1
w 156 155 -135 1
w 156 -155 135 0
w 156 -155 -135 1
w 157 156 136 0.360759
w 157 156 -136 0.517864
w 157 -156 136 0.470533
w 157 -156 -136 0.572717
w 158 157 137 0
w 158 157 -137 1
w 158 -157 137 0
w 158 -157 -137 0
w 159 158 138 0
w 159 158 -138 1
w 159 -158 138 1
w 159 -158 -138 1
w 160 159 139 1
w 160 159 -139 0
w 160 -159 139 0
w 160 -159 -139 0
w 161 160 140 0
w 161 160 -140 0
w 161 -160 140 0
w 161 -160 -140 1
w 162 161 141 0
w 162 161 -141 0
w 162 -161 141 0
w 162 -161 -141 1
w 163 162 142 0
w 163 162 -142 1
w 163 -162 142 1
w 163 -162 -142 1
w 164 163 143 1
w 164 163 -143 1
w 164 -163 143 0
w 164 -163 -143 0
w 165 164 144 1
w 165 164 -144 0
w 165 -164 144 0
w 165 -164 -144 0
w 166 165 145 1
w 166 165 -145 1
w 166 -165 145 0
w 166 -165 -145 1
w 167 166 146 0.566936
w 167 166 -146 0.0576085
w 167 -166 146 0.591141
w 167 -166 -146 0.466038
w 168 167 147 0
w 168 167 -147 1
w 168 -167 147 1
w 168 -167 -147 1
w 169 148 0
w 169 -148 1
w 170 169 149 0.113617
w 170 169 -149 0.102464
w 170 -169 149 0.319745
w 170 -169 -149 0.0434378
w 171 170 150 0
w 171 170 -150 1
w 171 -170 150 1
w 171 -170 -150 1
w 172 171 151 0.569822
w 172 171 -151 0.787165
w 172 -171 151 0.596185
w 172 -171 -151 0.506455
w 173 172 152 0.545157
w 173 172 -152 0.658803
w 173 -172 152 0.694259
w 173 -172 -152 0.112092
w 174 173 153 0
w 174 173 -153 1
w 174 -173 153 1
w 174 -173 -153 1
w 175 174 154 0
w 175 174 -154 1
w 175 -174 154 0
w 175 -174 -154 1
w 176 175 155 0
w 176 175 -155 1
w 176 -175 155 0
w 176 -175 -155 0
w 177 176 156 0.196469
w 177 176 -156 0.875402
w 177 -176 156 0.663333
w 177 -176 -156 0.707849
w 178 177 157 0.233155
w 178 177 -157 0.495013
w 178 -177 157 0.411768
w 178 -177 -157 0.73961
w 179 178 158 1
w 179 178 -158 0
w 179 -178 158 1
w 179 -178 -158 1
w 180 179 159 0
w 180 179 -159 0
w 180 -179 159 1
w 180 -179 -159 0
w 181 180 160 0
w 181 180 -160 1
w 181 -180 160 1
w 181 -180 -160 1
w 182 181 161 0
w 182 181 -161 1
w 182 -181 161 0
w 182 -181 -161 1
w 183 182 162 0
w 183 182 -162 1
w 183 -182 162 0
w 183 -182 -162 0
w 184 183 163 0.191738
w 184 183 -163 0.867968
w 184 -183 163 0.37714
w 184 -183 -163 0.931347
w 185 184 164 1
w 185 184 -164 0
w 185 -184 164 0
w 185 -184 -164 1
w 186 185 165 0
w 186 185 -165 1
w 186 -185 165 1
w 186 -185 -165 0
w 187 186 166 0.382213
w 187 186 -166 0.670297
w 187 -186 166 0.11792
w 187 -186 -166 0.826692
w 188 187 167 0
w 188 187 -167 1
w 188 -187 167 1
w 188 -187 -167 0
w 189 188 168 1
w 189 188 -168 1
w 189 -188 168 1
w 189 -188 -168 0
w 190 169 0
w 190 -169 1
w 191 190 170 1
w 191 190 -170 0
w 191 -190 170 0
w 191 -190 -170 0
w 192 191 171 1
w 192 191 -171 0
w 192 -191 171 1
w 192 -191 -171 1
w 193 192 172 1
w 193 192 -172 1
w 193 -192 172 0
w 193 -192 -172 0
w 194 193 173 1
w 194 193 -173 0
w 194 -193 173 0
w 194 -193 -173 0
w 195 194 174 1
w 195 194 -174 0
w 195 -194 174 0
w 195 -194 -174 0
w 196 195 175 0
w 196 195 -175 1
w 196 -195 175 0
w 196 -195 -175 0
w 197 196 176 1
w 197 196 -176 0
w 197 -196 176 1
w 197 -196 -176 1
w 198 197 177 0
w 198 197 -177 1
w 198 -197 177 0
w 198 -197 -177 1
w 199 198 178 0.0990143
w 199 198 -178 0.322084
w 199 -198 178 0.393866
w 199 -198 -178 0.815883
w 200 199 179 1
w 200 199 -179 0
w 200 -199 179 1
w 200 -199 -179 1
w 201 200 180 0
w 201 200 -180 0
w 201 -200 180 0
w 201 -200 -180 1
w 202 201 181 1
w 202 201 -181 1
w 202 -201 181 1
w 202 -201 -181 0
w 203 202 182 0
w 203 202 -182 1
w 203 -202 182 1
w 203 -202 -182 1
w 204 203 183 1
w 204 203 -183 0
w 204 -203 183 1
w 204 -203 -183 0
w 205 204 184 0.433469
w 205 204 -184 0.980899
w 205 -204 184 0.364685
w 205 -204 -184 0.249352
w 206 205 185 0
w 206 205 -185 1
w 206 -205 185 1
w 206 -205 -185 0
w 207 206 186 0
w 207 206 -186 0
w 207 -206 186 1
w 207 -206 -186 1
w 208 207 187 0
w 208 207 -187 0
w 208 -207 187 0
w 208 -207 -187 1
w 209 208 188 0.283014
w 209 208 -188 0.537921
w 209 -208 188 0.310935
w 209 -208 -188 0.729928
w 210 209 189 1
w 210 209 -189 0
w 210 -209 189 1
w 210 -209 -189 0
w 211 190 1
w 211 -190 0
w 212 211 191 0
w 212 211 -191 1
w 212 -211 191 1
w 212 -211 -191 1
w 213 212 192 0
w 213 212 -192 0
w 213 -212 192 1
w 213 -212 -192 1
w 214 213 193 0
w 214 213 -193 0
w 214 -213 193 1
w 214 -213 -193 1
w 215 214 194 0.879894
w 215 214 -194 0.501054
w 215 -214 194 0.992304
w 215 -214 -194 0.767787
w 216 215 195 0.530225
w 216 215 -195 0.0787226
w 216 -215 195 0.513996
w 216 -215 -195 0.0129064
w 217 216 196 0.174839
w 217 216 -196 0.594143
w 217 -216 196 0.175241
w 217 -216 -196 0.494497
w 218 217 197 0
w 218 217 -197 1
w 218 -217 197 0
w 218 -217 -197 1
w 219 218 198 0
w 219 218 -198 1
w 219 -218 198 1
w 219 -218 -198 1
w 220 219 199 1
w 220 219 -199 0
w 220 -219 199 1
w 220 -219 -199 0
w 221 220 200 0
w 221 220 -200 1
w 221 -220 200 1
w 221 -220 -200 1
w 222 221 201 1
w 222 221 -201 0
w 222 -221 201 1
w 222 -221 -201 1
w 223 222 202 1
w 223 222 -202 1
w 223 -222 202 0
w 223 -222 -202 0
w 224 223 203 0
w 224 223 -203 1
w 224 -223 203 0
w 224 -223 -203 1
w 225 224 204 0.116686
w 225 224 -204 0.354954
w 225 -224 204 0.843483
w 225 -224 -204 0.73
w 226 225 205 0.120013
w 226 225 -205 0.829963
w 226 -225 205 0.254496
w 226 -225 -205 0.837253
w 227 226 206 0.654706
w 227 226 -206 0.434388
w 227 -226 206 0.24948
w 227 -226 -206 0.0472204
w 228 227 207 0.493834
w 228 227 -207 0.969959
w 228 -227 207 0.242954
w 228 -227 -207 0.252184
w 229 228 208 0.646353
w 229 228 -208 0.185373
w 229 -228 208 0.435393
w 229 -228 -208 0.224993
w 230 229 209 0
w 230 229 -209 1
w 230 -229 209 0
w 230 -229 -209 0
w 231 230 210 0.721614
w 231 230 -210 0.966998
w 231 -230 210 0.108129
w 231 -230 -210 0.565097
w 232 211 0
w 232 -211 1
w 233 232 212 0
w 233 232 -212 0
w 233 -232 212 1
w 233 -232 -212 1
w 234 233 213 0.956751
w 234 233 -213 0.565635
w 234 -233 213 0.83243
w 234 -233 -213 0.756061
w 235 234 214 1
w 235 234 -214 1
w 235 -234 214 0
w 235 -234 -214 0
w 236 235 215 1
w 236 235 -215 1
w 236 -235 215 1
w 236 -235 -215 0
w 237 236 216 1
w 237 236 -216 0
w 237 -236 216 0
w 237 -236 -216 1
w 238 237 217 0
w 238 237 -217 0
w 238 -237 217 1
w 238 -237 -217 0
w 239 238 218 0
w 239 238 -218 1
w 239 -238 218 0
w 239 -238 -218 0
w 240 239 219 0
w 240 239 -219 1
w 240 -239 219 0
w 240 -239 -219 1
w 241 240 220 0.151894
w 241 240 -220 0.548949
w 241 -240 220 0.494031
w 241 -240 -220 0.797262
w 242 241 221 1
w 242 241 -221 0
w 242 -241 221 0
w 242 -241 -221 1
w 243 242 222 0
w 243 242 -222 1
w 243 -242 222 0
w 243 -242 -222 1
w 244 243 223 0
w 244 243 -223 0
w 244 -243 223 1
w 244 -243 -223 0
w 245 244 224 0.134463
w 245 244 -224 0.378187
w 245 -244 224 0.359809
w 245 -244 -224 0.746656
w 246 245 225 1
w 246 245 -225 0
w 246 -245 225 1
w 246 -245 -225 1
w 247 246 226 1
w 247 246 -226 0
w 247 -246 226 0
w 247 -246 -226 1
w 248 247 227 0.756705
w 248 247 -227 0.430536
w 248 -247 227 0.526287
w 248 -247 -227 0.912765
w 249 248 228 1
w 249 248 -228 0
w 249 -248 228 1
w 249 -248 -228 1
w 250 249 229 1
w 250 249 -229 1
w 250 -249 229 1
w 250 -249 -229 0
w 251 250 230 1
w 251 250 -230 0
w 251 -250 230 1
w 251 -250 -230 1
w 252 251 231 0.0333711
w 252 251 -231 0.318782
w 252 -251 231 0.731874
w 252 -251 -231 0.195152
w 253 232 0
w 253 -232 1
w 254 253 233 0.410985
w 254 253 -233 0.651939
w 254 -253 233 0.662587
w 254 -253 -233 0.841521
w 255 254 234 0
w 255 254 -234 1
w 255 -254 234 1
w 255 -254 -234 0
w 256 255 235 0
w 256 255 -235 1
w 256 -255 235 0
w 256 -255 -235 1
w 257 256 236 0
w 257 256 -236 0
w 257 -256 236 1
w 257 -256 -236 1
w 258 257 237 1
w 258 257 -237 1
w 258 -257 237 0
w 258 -257 -237 0
w 259 258 238 0
w 259 258 -238 0
w 259 -258 238 1
w 259 -258 -238 1
w 260 259 239 1
w 260 259 -239 1
w 260 -259 239 1
w 260 -259 -239 0
w 261 260 240 1
w 261 260 -240 0
w 261 -260 240 0
w 261 -260 -240 0
w 262 261 241 1
w 262 261 -241 0
w 262 -261 241 1
w 262 -261 -241 1
w 263 262 242 0.0694866
w 263 262 -242 0.65836
w 263 -262 242 0.588984
w 263 -262 -242 0.935816
w 264 263 243 0
w 264 263 -243 1
w 264 -263 243 0
w 264 -263 -243 0
w 265 264 244 1
w 265 264 -244 0
w 265 -264 244 1
w 265 -264 -244 0
w 266 265 245 1
w 266 265 -245 1
w 266 -265 245 0
w 266 -265 -245 0
w 267 266 246 1
w 267 266 -246 1
w 267 -266 246 1
w 267 -266 -246 0
w 268 267 247 0
w 268 267 -247 1
w 268 -267 247 1
w 268 -267 -247 1
w 269 268 248 0
w 269 268 -248 1
w 269 -268 248 0
w 269 -268 -248 1
w 270 269 249 1
w 270 269 -249 0
w 270 -269 249 1
w 270 -269 -249 1
w 271 270 250 0
w 271 270 -250 1
w 271 -270 250 0
w 271 -270 -250 0
w 272 271 251 0.558707
w 272 271 -251 0.774123
w 272 -271 251 0.563752
w 272 -271 -251 0.878442
w 273 272 252 0.213916
w 273 272 -252 0.307925
w 273 -272 252 0.0741093
w 273 -272 -252 0.0632632
w 274 253 1
w 274 -253 0
w 275 274 254 0
w 275 274 -254 1
w 275 -274 254 0
w 275 -274 -254 1
w 276 275 255 0.433957
w 276 275 -255 0.0647501
w 276 -275 255 0.505265
w 276 -275 -255 0.304042
w 277 276 256 0
w 277 276 -256 0
w 277 -276 256 1
w 277 -276 -256 1
w 278 277 257 1
w 278 277 -257 1
w 278 -277 257 0
w 278 -277 -257 1
w 279 278 258 1
w 279 278 -258 0
w 279 -278 258 0
w 279 -278 -258 1
w 280 279 259 0
w 280 279 -259 0
w 280 -279 259 1
w 280 -279 -259 1
w 281 280 260 0
w 281 280 -260 1
w 281 -280 260 1
w 281 -280 -260 1
w 282 281 261 1
w 282 281 -261 1
w 282 -281 261 0
w 282 -281 -261 0
w 283 282 262 1
w 283 282 -262 0
w 283 -282 262 0
w 283 -282 -262 0
w 284 283 263 1
w 284 283 -263 1
w 284 -283 263 0
w 284 -283 -263 1
w 285 284 264 0.475191
w 285 284 -264 0.0492167
w 285 -284 264 0.446117
w 285 -284 -264 0.900314
w 286 285 265 0
w 286 285 -265 0
w 286 -285 265 0
w 286 -285 -265 1
w 287 286 266 1
w 287 286 -266 0
w 287 -286 266 1
w 287 -286 -266 0
w 288 287 267 0
w 288 287 -267 1
w 288 -287 267 0
w 288 -287 -267 1
w 289 288 268 1
w 289 288 -268 0
w 289 -288 268 1
w 289 -288 -268 1
w 290 289 269 0
w 290 289 -269 1
w 290 -289 269 1
w 290 -289 -269 1
w 291 290 270 0
w 291 290 -270 1
w 291 -290 270 0
w 291 -290 -270 0
w 292 291 271 0
w 292 291 -271 0
w 292 -291 271 0
w 292 -291 -271 1
w 293 292 272 0.418145
w 293 292 -272 0.90337
w 293 -292 272 0.121517
w 293 -292 -272 0.00519659
w 294 293 273 1
w 294 293 -273 0
w 294 -293 273 1
w 294 -293 -273 0
w 295 274 0
w 295 -274 1
w 296 295 275 0.926685
w 296 295 -275 0.103866
w 296 -295 275 0.248038
w 296 -295 -275 0.482678
w 297 296 276 1
w 297 296 -276 0
w 297 -296 276 0
w 297 -296 -276 1
w 298 297 277 0
w 298 297 -277 0
w 298 -297 277 1
w 298 -297 -277 0
w 299 298 278 0
w 299 298 -278 0
w 299 -298 278 1
w 299 -298 -278 1
w 300 299 279 0
w 300 299 -279 0
w 300 -299 279 1
w 300 -299 -279 1
w 301 300 280 0
w 301 300 -280 1
w 301 -300 280 1
w 301 -300 -280 0
w 302 301 281 1
w 302 301 -281 1
w 302 -301 281 1
w 302 -301 -281 0
w 303 302 282 0
w 303 302 -282 0
w 303 -302 282 0
w 303 -302 -282 1
w 304 303 283 0
w 304 303 -283 1
w 304 -303 283 0
w 304 -303 -283 0
w 305 304 284 0
w 305 304 -284 1
w 305 -304 284 0
w 305 -304 -284 0
w 306 305 285 0.619366
w 306 305 -285 0.774176
w 306 -305 285 0.550948
w 306 -305 -285 0.785391
w 307 306 286 1
w 307 306 -286 0
w 307 -306 286 0
w 307 -306 -286 1
w 308 307 287 1
w 308 307 -287 0
w 308 -307 287 0
w 308 -307 -287 1
w 309 308 288 0
w 309 308 -288 1
w 309 -308 288 1
w 309 -308 -288 1
w 310 309 289 1
w 310 309 -289 1
w 310 -309 289 1
w 310 -309 -289 0
w 311 310 290 0
w 311 310 -290 0
w 311 -310 290 1
w 311 -310 -290 0
w 312 311 291 1
w 312 311 -291 0
w 312 -311 291 1
w 312 -311 -291 0
w 313 312 292 1
w 313 312 -292 1
w 313 -312 292 0
w 313 -312 -292 1
w 314 313 293 1
w 314 313 -293 0
w 314 -313 293 0
w 314 -313 -293 0
w 315 314 294 0
w 315 314 -294 0
w 315 -314 294 0
w 315 -314 -294 1
w 316 295 1
w 316 -295 0
w 317 316 296 1
w 317 316 -296 1
w 317 -316 296 0
w 317 -316 -296 1
w 318 317 297 1
w 318 317 -297 0
w 318 -317 297 1
w 318 -317 -297 1
w 319 318 298 0.302831
w 319 318 -298 0.15272
w 319 -318 298 0.904815
w 319 -318 -298 0.766324
w 320 319 299 0
w 320 319 -299 0
w 320 -319 299 1
w 320 -319 -299 1
w 321 320 300 1
w 321 320 -300 1
w 321 -320 300 0
w 321 -320 -300 1
w 322 321 301 0
w 322 321 -301 0
w 322 -321 301 1
w 322 -321 -301 1
w 323 322 302 0.334304
w 323 322 -302 0.320447
w 323 -322 302 0.105056
w 323 -322 -302 0.885676
w 324 323 303 0.613646
w 324 323 -303 0.629456
w 324 -323 303 0.685981
w 324 -323 -303 0.243883
w 325 324 304 0
w 325 324 -304 0
w 325 -324 304 1
w 325 -324 -304 1
w 326 325 305 0
w 326 325 -305 1
w 326 -325 305 1
w 326 -325 -305 1
w 327 326 306 0
w 327 326 -306 0
w 327 -326 306 1
w 327 -326 -306 0
w 328 327 307 1
w 328 327 -307 0
w 328 -327 307 1
w 328 -327 -307 0
w 329 328 308 0
w 329 328 -308 0
w 329 -328 308 0
w 329 -328 -308 1
w 330 329 309 0.290672
w 330 329 -309 0.592026
w 330 -329 309 0.473488
w 330 -329 -309 0.976653
w 331 330 310 0.658498
w 331 330 -310 0.449121
w 331 -330 310 0.382623
w 331 -330 -310 0.996228
w 332 331 311 0.695661
w 332 331 -311 0.365007
w 332 -331 311 0.374743
w 332 -331 -311 0.0943281
w 333 332 312 1
w 333 332 -312 0
w 333 -332 312 0
w 333 -332 -312 0
w 334 333 313 0.740437
w 334 333 -313 0.816733
w 334 -333 313 0.428406
w 334 -333 -313 0.667084
w 335 334 314 1
w 335 334 -314 1
w 335 -334 314 1
w 335 -334 -314 0
w 336 335 315 0
w 336 335 -315 1
w 336 -335 315 0
w 336 -335 -315 1
w 337 316 0
w 337 -316 1
w 338 337 317 1
w 338 337 -317 1
w 338 -337 317 0
w 338 -337 -317 1
w 339 338 318 1
w 339 338 -318 0
w 339 -338 318 0
w 339 -338 -318 1
w 340 339 319 0
w 340 339 -319 1
w 340 -339 319 1
w 340 -339 -319 0
w 341 340 320 1
w 341 340 -320 0
w 341 -340 320 1
w 341 -340 -320 0
w 342 341 321 0.248664
w 342 341 -321 0.907924
w 342 -341 321 0.784114
w 342 -341 -321 0.767451
w 343 342 322 1
w 343 342 -322 0
w 343 -342 322 0
w 343 -342 -322 1
w 344 343 323 0.242921
w 344 343 -323 0.76627
w 344 -343 323 0.154329
w 344 -343 -323 0.614309
w 345 344 324 1
w 345 344 -324 1
w 345 -344 324 1
w 345 -344 -324 0
w 346 345 325 1
w 346 345 -325 0
w 346 -345 325 1
w 346 -345 -325 1
w 347 346 326 0
w 347 346 -326 1
w 347 -346 326 0
w 347 -346 -326 1
w 348 347 327 0
w 348 347 -327 1
w 348 -347 327 0
w 348 -347 -327 0
w 349 348 328 1
w 349 348 -328 0
w 349 -348 328 1
w 349 -348 -328 0
w 350 349 329 1
w 350 349 -329 0
w 350 -349 329 0
w 350 -349 -329 1
w 351 350 330 1
w 351 350 -330 0
w 351 -350 330 0
w 351 -350 -330 1
w 352 351 331 1
w 352 351 -331 0
w 352 -351 331 0
w 352 -351 -331 0
w 353 352 332 0.966648
w 353 352 -332 0.0321922
w 353 -352 332 0.312961
w 353 -352 -332 0.105147
w 354 353 333 1
w 354 353 -333 0
w 354 -353 333 1
w 354 -353 -333 1
w 355 354 334 0
w 355 354 -334 1
w 355 -354 334 1
w 355 -354 -334 1
w 356 355 335 0
w 356 355 -335 1
w 356 -355 335 1
w 356 -355 -335 1
w 357 356 336 1
w 357 356 -336 0
w 357 -356 336 1
w 357 -356 -336 0
w 358 337 0
w 358 -337 1
w 359 358 338 1
w 359 358 -338 0
w 359 -358 338 0
w 359 -358 -338 0
w 360 359 339 0.657003
w 360 359 -339 0.0147026
w 360 -359 339 0.974205
w 360 -359 -339 0.235417
w 361 360 340 0.125775
w 361 360 -340 0.144167
w 361 -360 340 0.314763
w 361 -360 -340 0.474867
w 362 361 341 0
w 362 361 -341 0
w 362 -361 341 1
w 362 -361 -341 0
w 363 362 342 0
w 363 362 -342 1
w 363 -362 342 0
w 363 -362 -342 1
w 364 363 343 0
w 364 363 -343 1
w 364 -363 343 0
w 364 -363 -343 1
w 365 364 344 1
w 365 364 -344 0
w 365 -364 344 1
w 365 -364 -344 1
w 366 365 345 1
w 366 365 -345 1
w 366 -365 345 1
w 366 -365 -345 0
w 367 366 346 0
w 367 366 -346 1
w 367 -366 346 1
w 367 -366 -346 0
w 368 367 347 1
w 368 367 -347 0
w 368 -367 347 0
w 368 -367 -347 1
w 369 368 348 1
w 369 368 -348 1
w 369 -368 348 1
w 369 -368 -348 0
w 370 369 349 0.885352
w 370 369 -349 0.830475
w 370 -369 349 0.224123
w 370 -369 -349 0.588829
w 371 370 350 1
w 371 370 -350 1
w 371 -370 350 1
w 371 -370 -350 0
w 372 371 351 1
w 372 371 -351 0
w 372 -371 351 0
w 372 -371 -351 0
w 373 372 352 0.603307
w 373 372 -352 0.150733
w 373 -372 352 0.116289
w 373 -372 -352 0.0768957
w 374 373 353 1
w 374 373 -353 0
w 374 -373 353 1
w 374 -373 -353 1
w 375 374 354 0
w 375 374 -354 0
w 375 -374 354 0
w 375 -374 -354 1
w 376 375 355 0
w 376 375 -355 1
w 376 -375 355 0
w 376 -375 -355 0
w 377 376 356 0.329677
w 377 376 -356 0.649834
w 377 -376 356 0.856552
w 377 -376 -356 0.301375
w 378 377 357 0.178462
w 378 377 -357 0.11627
w 378 -377 357 0.343196
w 378 -377 -357 0.851896
w 379 358 1
w 379 -358 0
w 380 379 359 1
w 380 379 -359 1
w 380 -379 359 1
w 380 -379 -359 0
w 381 380 360 1
w 381 380 -360 1
w 381 -380 360 0
w 381 -380 -360 1
w 382 381 361 1
w 382 381 -361 0
w 382 -381 361 1
w 382 -381 -361 1
w 383 382 362 0
w 383 382 -362 0
w 383 -382 362 0
w 383 -382 -362 1
w 384 383 363 0.0226191
w 384 383 -363 0.678456
w 384 -383 363 0.0636415
w 384 -383 -363 0.138889
w 385 384 364 0
w 385 384 -364 1
w 385 -384 364 1
w 385 -384 -364 1
w 386 385 365 0
w 386 385 -365 1
w 386 -385 365 0
w 386 -385 -365 0
w 387 386 366 1
w 387 386 -366 1
w 387 -386 366 1
w 387 -386 -366 0
w 388 387 367 0
w 388 387 -367 0
w 388 -387 367 1
w 388 -387 -367 0
w 389 388 368 0
w 389 388 -368 0
w 389 -388 368 0
w 389 -388 -368 1
w 390 389 369 0.150524
w 390 389 -369 0.212097
w 390 -389 369 0.972312
w 390 -389 -369 0.289413
w 391 390 370 0
w 391 390 -370 0
w 391 -390 370 0
w 391 -390 -370 1
w 392 391 371 1
w 392 391 -371 0
w 392 -391 371 0
w 392 -391 -371 1
w 393 392 372 0.0545859
w 393 392 -372 0.346818
w 393 -392 372 0.42414
w 393 -392 -372 0.291753
w 394 393 373 1
w 394 393 -373 0
w 394 -393 373 0
w 394 -393 -373 0
w 395 394 374 0.877967
w 395 394 -374 0.188307
w 395 -394 374 0.0641745
w 395 -394 -374 0.411607
w 396 395 375 0
w 396 395 -375 0
w 396 -395 375 0
w 396 -395 -375 1
w 397 396 376 0.95714
w 397 396 -376 0.94219
w 397 -396 376 0.0593557
w 397 -396 -376 0.763157
w 398 397 377 1
w 398 397 -377 0
w 398 -397 377 1
w 398 -397 -377 0
w 399 398 378 1
w 399 398 -378 0
w 399 -398 378 0
w 399 -398 -378 0
w 400 379 0.420324
w 400 -379 0.984585
w 401 400 380 0
w 401 400 -380 0
w 401 -400 380 1
w 401 -400 -380 0
w 402 401 381 0
w 402 401 -381 1
w 402 -401 381 1
w 402 -401 -381 1
w 403 402 382 1
w 403 402 -382 0
w 403 -402 382 1
w 403 -402 -382 1
w 404 403 383 1
w 404 403 -383 1
w 404 -403 383 0
w 404 -403 -383 1
w 405 404 384 0
w 405 404 -384 1
w 405 -404 384 1
w 405 -404 -384 1
w 406 405 385 0
w 406 405 -385 0
w 406 -405 385 1
w 406 -405 -385 0
w 407 406 386 0
w 407 406 -386 1
w 407 -406 386 1
w 407 -406 -386 0
w 408 407 387 0.700666
w 408 407 -387 0.454539
w 408 -407 387 0.378857
w 408 -407 -387 0.266032
w 409 408 388 0.882833
w 409 408 -388 0.335509
w 409 -408 388 0.227331
w 409 -408 -388 0.343948
w 410 409 389 0
w 410 409 -389 1
w 410 -409 389 1
w 410 -409 -389 0
w 411 410 390 0
w 411 410 -390 1
w 411 -410 390 1
w 411 -410 -390 1
w 412 411 391 0
w 412 411 -391 1
w 412 -411 391 0
w 412 -411 -391 0
w 413 412 392 1
w 413 412 -392 0
w 413 -412 392 1
w 413 -412 -392 0
w 414 413 393 1
w 414 413 -393 1
w 414 -413 393 0
w 414 -413 -393 0
w 415 414 394 0.771471
w 415 414 -394 0.548526
w 415 -414 394 0.137331
w 415 -414 -394 0.998802
w 416 415 395 0.484508
w 416 415 -395 0.60061
w 416 -415 395 0.460695
w 416 -415 -395 0.498355
w 417 416 396 0.846055
w 417 416 -396 0.647166
w 417 -416 396 0.645377
w 417 -416 -396 0.544666
w 418 417 397 0
w 418 417 -397 1
w 418 -417 397 0
w 418 -417 -397 0
w 419 418 398 0
w 419 418 -398 0
w 419 -418 398 1
w 419 -418 -398 1
w 420 419 399 1
w 420 419 -399 0
w 420 -419 399 1
w 420 -419 -399 0
w 421 400 0.433191
w 421 -400 0.882315
w 422 421 401 0
w 422 421 -401 1
w 422 -421 401 0
w 422 -421 -401 0
w 423 422 402 0
w 423 422 -402 0
w 423 -422 402 1
w 423 -422 -402 1
w 424 423 403 0
w 424 423 -403 1
w 424 -423 403 0
w 424 -423 -403 0
w 425 424 404 1
w 425 424 -404 0
w 425 -424 404 1
w 425 -424 -404 1
w 426 425 405 1
w 426 425 -405 1
w 426 -425 405 0
w 426 -425 -405 1
w 427 426 406 0
w 427 426 -406 0
w 427 -426 406 1
w 427 -426 -406 1
w 428 427 407 0.0769755
w 428 427 -407 0.568972
w 428 -427 407 0.049566
w 428 -427 -407 0.132006
w 429 428 408 1
w 429 428 -408 0
w 429 -428 408 1
w 429 -428 -408 0
w 430 429 409 0.318946
w 430 429 -409 0.284491
w 430 -429 409 0.540319
w 430 -429 -409 0.629472
w 431 430 410 0.927654
w 431 430 -410 0.715329
w 431 -430 410 0.414294
w 431 -430 -410 0.784147
w 432 431 411 0
w 432 431 -411 0
w 432 -431 411 1
w 432 -431 -411 1
w 433 432 412 0
w 433 432 -412 1
w 433 -432 412 1
w 433 -432 -412 0
w 434 433 413 1
w 434 433 -413 0
w 434 -433 413 0
w 434 -433 -413 0
w 435 434 414 1
w 435 434 -414 1
w 435 -434 414 0
w 435 -434 -414 0
w 436 435 415 0.346257
w 436 435 -415 0.872378
w 436 -435 415 0.403886
w 436 -435 -415 0.975728
w 437 436 416 1
w 437 436 -416 0
w 437 -436 416 1
w 437 -436 -416 0
w 438 437 417 0.96212
w 438 437 -417 0.568152
w 438 -437 417 0.256235
w 438 -437 -417 0.514227
w 439 438 418 0.833033
w 439 438 -418 0.871876
w 439 -438 418 0.538368
w 439 -438 -418 0.916284
w 440 439 419 0.133353
w 440 439 -419 0.0765101
w 440 -439 419 0.531858
w 440 -439 -419 0.777904
w 441 440 420 0
w 441 440 -420 1
w 441 -440 420 0
w 441 -440 -420 0